db/data/599216462326973212828217350374531409.z3.out
sat
-------------------
751.304741002
